proyfinal/src/viki/013/experimentInOfficeAgust.take6.output/74a0fd98-f4d4-467c-90ab-f590ef253e8e.als.dat
{'cnf.clauses': '118081',
 'cnf.totvars': '69608',
 'conflict literals': '11',
 'conflicts': '7',
 'decisions': '2779',
 'memused.mb': '17.43',
 'outcome': 'UNSAT',
 'propagations': '22638',
 'restarts': '1',
 'solver.msecs': 34,
 'task.msecs': 83}
