proyfinal/src/viki/013/experimentInOfficeAgust.take6.output/74a0fd98-f4d4-467c-90ab-f590ef253e8e.als.out
Reading from standard input... Use '--help' for help.
============================[ Problem Statistics ]=============================
|                                                                             |
|  Number of variables:         69608                                         |
|  Number of clauses:          118081                                         |
|  Parse time:                   0.03 s                                       |
|                                                                             |
============================[ Search Statistics ]==============================
| Conflicts |          ORIGINAL         |          LEARNT          | Progress |
|           |    Vars  Clauses Literals |    Limit  Clauses Lit/Cl |          |
===============================================================================
===============================================================================
restarts              : 1
conflicts             : 7              (201 /sec)
decisions             : 2779           (0.00 % random) (79632 /sec)
propagations          : 22638          (648690 /sec)
conflict literals     : 11             (0.00 % deleted)
Memory used           : 17.43 MB
CPU time              : 0.034898 s

UNSATISFIABLE
